\ LP format - for model browsing. Use MPS format to capture full model detail.
Maximize
obj:   x[1] + x[4] + x[5] + x[102] + x[106] + x[108] + x[110] + x[83] + x[150]
   + x[117] + x[22] + x[23] + x[120] + x[89] + x[126] + x[31] + x[2]
   + x[64] + x[6] + x[49] + x[8] + x[74] + x[45] + x[113] + x[147] + x[84]
   + x[30] + x[118] + x[119] + x[24] + x[25] + x[70] + x[58] + x[134]
   + x[3] + x[98] + x[77] + x[51] + x[52] + x[116] + x[90] + x[63] + x[29]
   + x[62] + x[127] + x[34] + x[100] + x[81] + x[47] + x[18] + x[143]
   + x[93] + x[72] + x[137] + x[13] + x[148] + x[122] + x[125] + x[33]
   + x[99] + x[40] + x[55] + x[28] + x[7] + x[27] + x[103] + x[10] + x[76]
   + x[111] + x[20] + x[149] + x[26] + x[123] + x[138] + x[95] + x[80]
   + x[130] + x[39] + x[109] + x[48] + x[114] + x[85] + x[9] + x[32]
   + x[65] + x[66] + x[91] + x[68] + x[107] + x[17] + x[82] + x[115]
   + x[59] + x[144] + x[41] + x[43] + x[44] + x[112] + x[88] + x[121]
   + x[11] + x[129] + x[105] + x[12] + x[96] + x[35] + x[36] + x[142]
   + x[15] + x[146] + x[57] + x[140] + x[14] + x[73] + x[75] + x[78]
   + x[71] + x[92] + x[16] + x[67] + x[69] + x[104] + x[56] + x[37] + x[60]
   + x[141] + x[19] + x[132] + x[139] + x[145] + x[101] + x[21] + x[133]
   + x[42] + x[46] + x[54] + x[135] + x[53] + x[61] + x[128] + x[136]
   + x[50] + x[79] + x[94] + x[97] + x[124] + x[131] + x[87] + x[38]
   + x[86]
Subject To
 edge1: x[1] + x[4] <= 1
 edge2: x[1] + x[5] <= 1
 edge3: x[1] + x[102] <= 1
 edge4: x[1] + x[106] <= 1
 edge5: x[1] + x[108] <= 1
 edge6: x[1] + x[110] <= 1
 edge7: x[1] + x[83] <= 1
 edge8: x[1] + x[150] <= 1
 edge9: x[1] + x[117] <= 1
 edge10: x[1] + x[22] <= 1
 edge11: x[1] + x[23] <= 1
 edge12: x[1] + x[120] <= 1
 edge13: x[1] + x[89] <= 1
 edge14: x[1] + x[126] <= 1
 edge15: x[1] + x[31] <= 1
 edge16: x[4] + x[34] <= 1
 edge17: x[4] + x[100] <= 1
 edge18: x[4] + x[81] <= 1
 edge19: x[4] + x[74] <= 1
 edge20: x[4] + x[47] <= 1
 edge21: x[4] + x[113] <= 1
 edge22: x[4] + x[18] <= 1
 edge23: x[4] + x[84] <= 1
 edge24: x[4] + x[90] <= 1
 edge25: x[4] + x[143] <= 1
 edge26: x[4] + x[93] <= 1
 edge27: x[5] + x[2] <= 1
 edge28: x[5] + x[72] <= 1
 edge29: x[5] + x[137] <= 1
 edge30: x[5] + x[108] <= 1
 edge31: x[5] + x[13] <= 1
 edge32: x[5] + x[8] <= 1
 edge33: x[5] + x[83] <= 1
 edge34: x[5] + x[148] <= 1
 edge35: x[5] + x[89] <= 1
 edge36: x[5] + x[122] <= 1
 edge37: x[5] + x[125] <= 1
 edge38: x[102] + x[16] <= 1
 edge39: x[102] + x[17] <= 1
 edge40: x[102] + x[32] <= 1
 edge41: x[102] + x[33] <= 1
 edge42: x[102] + x[34] <= 1
 edge43: x[102] + x[38] <= 1
 edge44: x[102] + x[47] <= 1
 edge45: x[102] + x[51] <= 1
 edge46: x[102] + x[62] <= 1
 edge47: x[102] + x[64] <= 1
 edge48: x[102] + x[66] <= 1
 edge49: x[102] + x[85] <= 1
 edge50: x[102] + x[91] <= 1
 edge51: x[102] + x[95] <= 1
 edge52: x[102] + x[96] <= 1
 edge53: x[102] + x[107] <= 1
 edge54: x[102] + x[134] <= 1
 edge55: x[102] + x[111] <= 1
 edge56: x[102] + x[143] <= 1
 edge57: x[102] + x[148] <= 1
 edge58: x[106] + x[19] <= 1
 edge59: x[106] + x[29] <= 1
 edge60: x[106] + x[47] <= 1
 edge61: x[106] + x[49] <= 1
 edge62: x[106] + x[59] <= 1
 edge63: x[106] + x[67] <= 1
 edge64: x[106] + x[81] <= 1
 edge65: x[106] + x[82] <= 1
 edge66: x[106] + x[90] <= 1
 edge67: x[106] + x[95] <= 1
 edge68: x[106] + x[97] <= 1
 edge69: x[106] + x[100] <= 1
 edge70: x[106] + x[133] <= 1
 edge71: x[106] + x[135] <= 1
 edge72: x[106] + x[136] <= 1
 edge73: x[106] + x[143] <= 1
 edge74: x[106] + x[148] <= 1
 edge75: x[106] + x[150] <= 1
 edge76: x[106] + x[147] <= 1
 edge77: x[106] + x[117] <= 1
 edge78: x[106] + x[121] <= 1
 edge79: x[108] + x[28] <= 1
 edge80: x[108] + x[32] <= 1
 edge81: x[108] + x[58] <= 1
 edge82: x[108] + x[64] <= 1
 edge83: x[108] + x[70] <= 1
 edge84: x[108] + x[81] <= 1
 edge85: x[108] + x[83] <= 1
 edge86: x[108] + x[96] <= 1
 edge87: x[108] + x[130] <= 1
 edge88: x[108] + x[147] <= 1
 edge89: x[108] + x[113] <= 1
 edge90: x[108] + x[114] <= 1
 edge91: x[108] + x[110] <= 1
 edge92: x[108] + x[144] <= 1
 edge93: x[108] + x[146] <= 1
 edge94: x[110] + x[8] <= 1
 edge95: x[110] + x[12] <= 1
 edge96: x[110] + x[16] <= 1
 edge97: x[110] + x[32] <= 1
 edge98: x[110] + x[39] <= 1
 edge99: x[110] + x[49] <= 1
 edge100: x[110] + x[56] <= 1
 edge101: x[110] + x[61] <= 1
 edge102: x[110] + x[62] <= 1
 edge103: x[110] + x[70] <= 1
 edge104: x[110] + x[74] <= 1
 edge105: x[110] + x[75] <= 1
 edge106: x[110] + x[82] <= 1
 edge107: x[110] + x[107] <= 1
 edge108: x[110] + x[134] <= 1
 edge109: x[110] + x[125] <= 1
 edge110: x[110] + x[117] <= 1
 edge111: x[83] + x[7] <= 1
 edge112: x[83] + x[19] <= 1
 edge113: x[83] + x[20] <= 1
 edge114: x[83] + x[38] <= 1
 edge115: x[83] + x[43] <= 1
 edge116: x[83] + x[54] <= 1
 edge117: x[83] + x[69] <= 1
 edge118: x[83] + x[71] <= 1
 edge119: x[83] + x[76] <= 1
 edge120: x[83] + x[78] <= 1
 edge121: x[83] + x[130] <= 1
 edge122: x[83] + x[131] <= 1
 edge123: x[83] + x[132] <= 1
 edge124: x[83] + x[97] <= 1
 edge125: x[83] + x[104] <= 1
 edge126: x[83] + x[107] <= 1
 edge127: x[83] + x[109] <= 1
 edge128: x[83] + x[113] <= 1
 edge129: x[83] + x[118] <= 1
 edge130: x[83] + x[120] <= 1
 edge131: x[83] + x[125] <= 1
 edge132: x[150] + x[9] <= 1
 edge133: x[150] + x[29] <= 1
 edge134: x[150] + x[41] <= 1
 edge135: x[150] + x[58] <= 1
 edge136: x[150] + x[71] <= 1
 edge137: x[150] + x[77] <= 1
 edge138: x[150] + x[79] <= 1
 edge139: x[150] + x[80] <= 1
 edge140: x[150] + x[104] <= 1
 edge141: x[150] + x[116] <= 1
 edge142: x[150] + x[119] <= 1
 edge143: x[150] + x[122] <= 1
 edge144: x[150] + x[131] <= 1
 edge145: x[150] + x[149] <= 1
 edge146: x[117] + x[9] <= 1
 edge147: x[117] + x[12] <= 1
 edge148: x[117] + x[32] <= 1
 edge149: x[117] + x[38] <= 1
 edge150: x[117] + x[56] <= 1
 edge151: x[117] + x[59] <= 1
 edge152: x[117] + x[80] <= 1
 edge153: x[117] + x[81] <= 1
 edge154: x[117] + x[87] <= 1
 edge155: x[117] + x[140] <= 1
 edge156: x[117] + x[149] <= 1
 edge157: x[22] + x[17] <= 1
 edge158: x[22] + x[98] <= 1
 edge159: x[22] + x[68] <= 1
 edge160: x[22] + x[73] <= 1
 edge161: x[22] + x[44] <= 1
 edge162: x[22] + x[78] <= 1
 edge163: x[22] + x[143] <= 1
 edge164: x[22] + x[84] <= 1
 edge165: x[22] + x[118] <= 1
 edge166: x[22] + x[121] <= 1
 edge167: x[22] + x[36] <= 1
 edge168: x[23] + x[3] <= 1
 edge169: x[23] + x[71] <= 1
 edge170: x[23] + x[103] <= 1
 edge171: x[23] + x[76] <= 1
 edge172: x[23] + x[45] <= 1
 edge173: x[23] + x[26] <= 1
 edge174: x[23] + x[89] <= 1
 edge175: x[23] + x[122] <= 1
 edge176: x[23] + x[135] <= 1
 edge177: x[23] + x[90] <= 1
 edge178: x[23] + x[126] <= 1
 edge179: x[120] + x[12] <= 1
 edge180: x[120] + x[25] <= 1
 edge181: x[120] + x[33] <= 1
 edge182: x[120] + x[34] <= 1
 edge183: x[120] + x[49] <= 1
 edge184: x[120] + x[57] <= 1
 edge185: x[120] + x[58] <= 1
 edge186: x[120] + x[59] <= 1
 edge187: x[120] + x[60] <= 1
 edge188: x[120] + x[61] <= 1
 edge189: x[120] + x[76] <= 1
 edge190: x[120] + x[82] <= 1
 edge191: x[120] + x[94] <= 1
 edge192: x[120] + x[100] <= 1
 edge193: x[120] + x[104] <= 1
 edge194: x[120] + x[105] <= 1
 edge195: x[120] + x[107] <= 1
 edge196: x[120] + x[130] <= 1
 edge197: x[120] + x[132] <= 1
 edge198: x[120] + x[142] <= 1
 edge199: x[120] + x[144] <= 1
 edge200: x[120] + x[149] <= 1
 edge201: x[120] + x[124] <= 1
 edge202: x[89] + x[2] <= 1
 edge203: x[89] + x[12] <= 1
 edge204: x[89] + x[32] <= 1
 edge205: x[89] + x[52] <= 1
 edge206: x[89] + x[53] <= 1
 edge207: x[89] + x[57] <= 1
 edge208: x[89] + x[75] <= 1
 edge209: x[89] + x[116] <= 1
 edge210: x[89] + x[90] <= 1
 edge211: x[89] + x[124] <= 1
 edge212: x[126] + x[13] <= 1
 edge213: x[126] + x[35] <= 1
 edge214: x[126] + x[37] <= 1
 edge215: x[126] + x[41] <= 1
 edge216: x[126] + x[44] <= 1
 edge217: x[126] + x[69] <= 1
 edge218: x[126] + x[95] <= 1
 edge219: x[126] + x[96] <= 1
 edge220: x[126] + x[107] <= 1
 edge221: x[126] + x[115] <= 1
 edge222: x[126] + x[118] <= 1
 edge223: x[126] + x[125] <= 1
 edge224: x[126] + x[130] <= 1
 edge225: x[31] + x[10] <= 1
 edge226: x[31] + x[21] <= 1
 edge227: x[31] + x[27] <= 1
 edge228: x[31] + x[29] <= 1
 edge229: x[31] + x[84] <= 1
 edge230: x[31] + x[32] <= 1
 edge231: x[31] + x[71] <= 1
 edge232: x[31] + x[40] <= 1
 edge233: x[31] + x[73] <= 1
 edge234: x[31] + x[140] <= 1
 edge235: x[31] + x[61] <= 1
 edge236: x[31] + x[116] <= 1
 edge237: x[31] + x[121] <= 1
 edge238: x[31] + x[56] <= 1
 edge239: x[31] + x[148] <= 1
 edge240: x[31] + x[124] <= 1
 edge241: x[31] + x[63] <= 1
 edge242: x[2] + x[64] <= 1
 edge243: x[2] + x[6] <= 1
 edge244: x[2] + x[49] <= 1
 edge245: x[2] + x[8] <= 1
 edge246: x[2] + x[74] <= 1
 edge247: x[2] + x[45] <= 1
 edge248: x[2] + x[113] <= 1
 edge249: x[2] + x[147] <= 1
 edge250: x[2] + x[84] <= 1
 edge251: x[2] + x[30] <= 1
 edge252: x[2] + x[118] <= 1
 edge253: x[2] + x[119] <= 1
 edge254: x[2] + x[24] <= 1
 edge255: x[2] + x[25] <= 1
 edge256: x[2] + x[70] <= 1
 edge257: x[2] + x[58] <= 1
 edge258: x[2] + x[134] <= 1
 edge259: x[64] + x[13] <= 1
 edge260: x[64] + x[16] <= 1
 edge261: x[64] + x[48] <= 1
 edge262: x[64] + x[58] <= 1
 edge263: x[64] + x[61] <= 1
 edge264: x[64] + x[63] <= 1
 edge265: x[64] + x[99] <= 1
 edge266: x[64] + x[71] <= 1
 edge267: x[64] + x[104] <= 1
 edge268: x[64] + x[135] <= 1
 edge269: x[64] + x[119] <= 1
 edge270: x[6] + x[33] <= 1
 edge271: x[6] + x[99] <= 1
 edge272: x[6] + x[40] <= 1
 edge273: x[6] + x[47] <= 1
 edge274: x[6] + x[84] <= 1
 edge275: x[6] + x[55] <= 1
 edge276: x[6] + x[25] <= 1
 edge277: x[6] + x[58] <= 1
 edge278: x[6] + x[28] <= 1
 edge279: x[6] + x[63] <= 1
 edge280: x[49] + x[25] <= 1
 edge281: x[49] + x[26] <= 1
 edge282: x[49] + x[135] <= 1
 edge283: x[49] + x[72] <= 1
 edge284: x[49] + x[140] <= 1
 edge285: x[49] + x[130] <= 1
 edge286: x[49] + x[143] <= 1
 edge287: x[49] + x[104] <= 1
 edge288: x[49] + x[82] <= 1
 edge289: x[49] + x[142] <= 1
 edge290: x[49] + x[56] <= 1
 edge291: x[49] + x[53] <= 1
 edge292: x[8] + x[80] <= 1
 edge293: x[8] + x[130] <= 1
 edge294: x[8] + x[39] <= 1
 edge295: x[8] + x[138] <= 1
 edge296: x[8] + x[109] <= 1
 edge297: x[8] + x[48] <= 1
 edge298: x[8] + x[114] <= 1
 edge299: x[8] + x[20] <= 1
 edge300: x[8] + x[85] <= 1
 edge301: x[8] + x[26] <= 1
 edge302: x[74] + x[13] <= 1
 edge303: x[74] + x[32] <= 1
 edge304: x[74] + x[37] <= 1
 edge305: x[74] + x[40] <= 1
 edge306: x[74] + x[62] <= 1
 edge307: x[74] + x[70] <= 1
 edge308: x[74] + x[73] <= 1
 edge309: x[74] + x[107] <= 1
 edge310: x[74] + x[122] <= 1
 edge311: x[74] + x[93] <= 1
 edge312: x[74] + x[95] <= 1
 edge313: x[45] + x[14] <= 1
 edge314: x[45] + x[17] <= 1
 edge315: x[45] + x[19] <= 1
 edge316: x[45] + x[29] <= 1
 edge317: x[45] + x[65] <= 1
 edge318: x[45] + x[67] <= 1
 edge319: x[45] + x[69] <= 1
 edge320: x[45] + x[75] <= 1
 edge321: x[45] + x[77] <= 1
 edge322: x[45] + x[93] <= 1
 edge323: x[45] + x[50] <= 1
 edge324: x[45] + x[88] <= 1
 edge325: x[45] + x[90] <= 1
 edge326: x[113] + x[14] <= 1
 edge327: x[113] + x[20] <= 1
 edge328: x[113] + x[28] <= 1
 edge329: x[113] + x[35] <= 1
 edge330: x[113] + x[59] <= 1
 edge331: x[113] + x[65] <= 1
 edge332: x[113] + x[66] <= 1
 edge333: x[113] + x[78] <= 1
 edge334: x[113] + x[93] <= 1
 edge335: x[113] + x[98] <= 1
 edge336: x[113] + x[101] <= 1
 edge337: x[113] + x[133] <= 1
 edge338: x[113] + x[143] <= 1
 edge339: x[113] + x[146] <= 1
 edge340: x[113] + x[114] <= 1
 edge341: x[147] + x[17] <= 1
 edge342: x[147] + x[79] <= 1
 edge343: x[147] + x[93] <= 1
 edge344: x[84] + x[17] <= 1
 edge345: x[84] + x[36] <= 1
 edge346: x[84] + x[38] <= 1
 edge347: x[84] + x[39] <= 1
 edge348: x[84] + x[77] <= 1
 edge349: x[84] + x[139] <= 1
 edge350: x[84] + x[142] <= 1
 edge351: x[84] + x[112] <= 1
 edge352: x[84] + x[98] <= 1
 edge353: x[84] + x[123] <= 1
 edge354: x[84] + x[94] <= 1
 edge355: x[30] + x[7] <= 1
 edge356: x[30] + x[29] <= 1
 edge357: x[30] + x[97] <= 1
 edge358: x[30] + x[67] <= 1
 edge359: x[30] + x[69] <= 1
 edge360: x[30] + x[40] <= 1
 edge361: x[30] + x[137] <= 1
 edge362: x[30] + x[39] <= 1
 edge363: x[30] + x[141] <= 1
 edge364: x[30] + x[129] <= 1
 edge365: x[30] + x[111] <= 1
 edge366: x[30] + x[34] <= 1
 edge367: x[30] + x[82] <= 1
 edge368: x[30] + x[118] <= 1
 edge369: x[30] + x[143] <= 1
 edge370: x[30] + x[92] <= 1
 edge371: x[30] + x[133] <= 1
 edge372: x[118] + x[12] <= 1
 edge373: x[118] + x[16] <= 1
 edge374: x[118] + x[27] <= 1
 edge375: x[118] + x[33] <= 1
 edge376: x[118] + x[34] <= 1
 edge377: x[118] + x[53] <= 1
 edge378: x[118] + x[60] <= 1
 edge379: x[118] + x[72] <= 1
 edge380: x[118] + x[73] <= 1
 edge381: x[118] + x[77] <= 1
 edge382: x[118] + x[97] <= 1
 edge383: x[118] + x[105] <= 1
 edge384: x[118] + x[131] <= 1
 edge385: x[118] + x[130] <= 1
 edge386: x[118] + x[144] <= 1
 edge387: x[118] + x[146] <= 1
 edge388: x[118] + x[125] <= 1
 edge389: x[119] + x[26] <= 1
 edge390: x[119] + x[35] <= 1
 edge391: x[119] + x[47] <= 1
 edge392: x[119] + x[50] <= 1
 edge393: x[119] + x[53] <= 1
 edge394: x[119] + x[77] <= 1
 edge395: x[119] + x[79] <= 1
 edge396: x[119] + x[100] <= 1
 edge397: x[119] + x[101] <= 1
 edge398: x[119] + x[138] <= 1
 edge399: x[119] + x[121] <= 1
 edge400: x[119] + x[124] <= 1
 edge401: x[24] + x[11] <= 1
 edge402: x[24] + x[14] <= 1
 edge403: x[24] + x[107] <= 1
 edge404: x[24] + x[32] <= 1
 edge405: x[24] + x[139] <= 1
 edge406: x[24] + x[100] <= 1
 edge407: x[24] + x[37] <= 1
 edge408: x[24] + x[42] <= 1
 edge409: x[24] + x[130] <= 1
 edge410: x[24] + x[77] <= 1
 edge411: x[24] + x[51] <= 1
 edge412: x[24] + x[116] <= 1
 edge413: x[24] + x[53] <= 1
 edge414: x[24] + x[55] <= 1
 edge415: x[24] + x[88] <= 1
 edge416: x[24] + x[91] <= 1
 edge417: x[24] + x[61] <= 1
 edge418: x[25] + x[7] <= 1
 edge419: x[25] + x[128] <= 1
 edge420: x[25] + x[136] <= 1
 edge421: x[25] + x[145] <= 1
 edge422: x[25] + x[148] <= 1
 edge423: x[25] + x[149] <= 1
 edge424: x[25] + x[37] <= 1
 edge425: x[25] + x[47] <= 1
 edge426: x[25] + x[50] <= 1
 edge427: x[25] + x[52] <= 1
 edge428: x[25] + x[54] <= 1
 edge429: x[25] + x[55] <= 1
 edge430: x[25] + x[60] <= 1
 edge431: x[25] + x[62] <= 1
 edge432: x[25] + x[66] <= 1
 edge433: x[25] + x[75] <= 1
 edge434: x[25] + x[80] <= 1
 edge435: x[25] + x[88] <= 1
 edge436: x[25] + x[99] <= 1
 edge437: x[25] + x[127] <= 1
 edge438: x[70] + x[11] <= 1
 edge439: x[70] + x[35] <= 1
 edge440: x[70] + x[39] <= 1
 edge441: x[70] + x[55] <= 1
 edge442: x[70] + x[56] <= 1
 edge443: x[70] + x[96] <= 1
 edge444: x[70] + x[80] <= 1
 edge445: x[70] + x[145] <= 1
 edge446: x[70] + x[142] <= 1
 edge447: x[70] + x[90] <= 1
 edge448: x[70] + x[92] <= 1
 edge449: x[70] + x[125] <= 1
 edge450: x[58] + x[14] <= 1
 edge451: x[58] + x[41] <= 1
 edge452: x[58] + x[50] <= 1
 edge453: x[58] + x[99] <= 1
 edge454: x[58] + x[132] <= 1
 edge455: x[58] + x[145] <= 1
 edge456: x[58] + x[104] <= 1
 edge457: x[58] + x[107] <= 1
 edge458: x[58] + x[143] <= 1
 edge459: x[58] + x[81] <= 1
 edge460: x[58] + x[137] <= 1
 edge461: x[58] + x[140] <= 1
 edge462: x[58] + x[92] <= 1
 edge463: x[134] + x[20] <= 1
 edge464: x[134] + x[39] <= 1
 edge465: x[134] + x[48] <= 1
 edge466: x[134] + x[55] <= 1
 edge467: x[134] + x[81] <= 1
 edge468: x[134] + x[88] <= 1
 edge469: x[134] + x[91] <= 1
 edge470: x[134] + x[97] <= 1
 edge471: x[134] + x[104] <= 1
 edge472: x[134] + x[116] <= 1
 edge473: x[134] + x[131] <= 1
 edge474: x[134] + x[140] <= 1
 edge475: x[3] + x[98] <= 1
 edge476: x[3] + x[77] <= 1
 edge477: x[3] + x[51] <= 1
 edge478: x[3] + x[52] <= 1
 edge479: x[3] + x[116] <= 1
 edge480: x[3] + x[90] <= 1
 edge481: x[3] + x[63] <= 1
 edge482: x[3] + x[29] <= 1
 edge483: x[3] + x[62] <= 1
 edge484: x[3] + x[127] <= 1
 edge485: x[98] + x[7] <= 1
 edge486: x[98] + x[11] <= 1
 edge487: x[98] + x[27] <= 1
 edge488: x[98] + x[37] <= 1
 edge489: x[98] + x[42] <= 1
 edge490: x[98] + x[46] <= 1
 edge491: x[98] + x[55] <= 1
 edge492: x[98] + x[66] <= 1
 edge493: x[98] + x[73] <= 1
 edge494: x[98] + x[90] <= 1
 edge495: x[98] + x[94] <= 1
 edge496: x[98] + x[123] <= 1
 edge497: x[98] + x[136] <= 1
 edge498: x[98] + x[107] <= 1
 edge499: x[77] + x[7] <= 1
 edge500: x[77] + x[16] <= 1
 edge501: x[77] + x[17] <= 1
 edge502: x[77] + x[33] <= 1
 edge503: x[77] + x[47] <= 1
 edge504: x[77] + x[60] <= 1
 edge505: x[77] + x[86] <= 1
 edge506: x[77] + x[105] <= 1
 edge507: x[77] + x[140] <= 1
 edge508: x[77] + x[114] <= 1
 edge509: x[77] + x[79] <= 1
 edge510: x[77] + x[93] <= 1
 edge511: x[51] + x[20] <= 1
 edge512: x[51] + x[40] <= 1
 edge513: x[51] + x[48] <= 1
 edge514: x[51] + x[65] <= 1
 edge515: x[51] + x[130] <= 1
 edge516: x[51] + x[105] <= 1
 edge517: x[51] + x[142] <= 1
 edge518: x[51] + x[136] <= 1
 edge519: x[51] + x[149] <= 1
 edge520: x[51] + x[86] <= 1
 edge521: x[51] + x[92] <= 1
 edge522: x[51] + x[61] <= 1
 edge523: x[52] + x[11] <= 1
 edge524: x[52] + x[26] <= 1
 edge525: x[52] + x[44] <= 1
 edge526: x[52] + x[65] <= 1
 edge527: x[52] + x[129] <= 1
 edge528: x[52] + x[72] <= 1
 edge529: x[52] + x[140] <= 1
 edge530: x[52] + x[111] <= 1
 edge531: x[52] + x[99] <= 1
 edge532: x[52] + x[121] <= 1
 edge533: x[52] + x[105] <= 1
 edge534: x[52] + x[56] <= 1
 edge535: x[116] + x[15] <= 1
 edge536: x[116] + x[21] <= 1
 edge537: x[116] + x[39] <= 1
 edge538: x[116] + x[40] <= 1
 edge539: x[116] + x[54] <= 1
 edge540: x[116] + x[69] <= 1
 edge541: x[116] + x[93] <= 1
 edge542: x[116] + x[123] <= 1
 edge543: x[116] + x[143] <= 1
 edge544: x[90] + x[18] <= 1
 edge545: x[90] + x[26] <= 1
 edge546: x[90] + x[34] <= 1
 edge547: x[90] + x[39] <= 1
 edge548: x[90] + x[61] <= 1
 edge549: x[90] + x[66] <= 1
 edge550: x[90] + x[107] <= 1
 edge551: x[90] + x[143] <= 1
 edge552: x[90] + x[141] <= 1
 edge553: x[90] + x[139] <= 1
 edge554: x[90] + x[138] <= 1
 edge555: x[63] + x[16] <= 1
 edge556: x[63] + x[47] <= 1
 edge557: x[63] + x[50] <= 1
 edge558: x[63] + x[56] <= 1
 edge559: x[63] + x[57] <= 1
 edge560: x[63] + x[62] <= 1
 edge561: x[63] + x[123] <= 1
 edge562: x[63] + x[100] <= 1
 edge563: x[63] + x[79] <= 1
 edge564: x[63] + x[142] <= 1
 edge565: x[63] + x[131] <= 1
 edge566: x[63] + x[86] <= 1
 edge567: x[63] + x[87] <= 1
 edge568: x[63] + x[143] <= 1
 edge569: x[63] + x[124] <= 1
 edge570: x[63] + x[93] <= 1
 edge571: x[29] + x[11] <= 1
 edge572: x[29] + x[14] <= 1
 edge573: x[29] + x[18] <= 1
 edge574: x[29] + x[65] <= 1
 edge575: x[29] + x[72] <= 1
 edge576: x[29] + x[44] <= 1
 edge577: x[29] + x[136] <= 1
 edge578: x[29] + x[55] <= 1
 edge579: x[62] + x[36] <= 1
 edge580: x[62] + x[69] <= 1
 edge581: x[62] + x[76] <= 1
 edge582: x[62] + x[99] <= 1
 edge583: x[62] + x[149] <= 1
 edge584: x[127] + x[9] <= 1
 edge585: x[127] + x[10] <= 1
 edge586: x[127] + x[26] <= 1
 edge587: x[127] + x[78] <= 1
 edge588: x[127] + x[95] <= 1
 edge589: x[127] + x[115] <= 1
 edge590: x[34] + x[11] <= 1
 edge591: x[34] + x[16] <= 1
 edge592: x[34] + x[65] <= 1
 edge593: x[34] + x[131] <= 1
 edge594: x[34] + x[129] <= 1
 edge595: x[34] + x[136] <= 1
 edge596: x[34] + x[80] <= 1
 edge597: x[34] + x[111] <= 1
 edge598: x[34] + x[88] <= 1
 edge599: x[34] + x[139] <= 1
 edge600: x[34] + x[48] <= 1
 edge601: x[34] + x[87] <= 1
 edge602: x[34] + x[55] <= 1
 edge603: x[34] + x[103] <= 1
 edge604: x[34] + x[60] <= 1
 edge605: x[100] + x[60] <= 1
 edge606: x[100] + x[69] <= 1
 edge607: x[100] + x[96] <= 1
 edge608: x[100] + x[129] <= 1
 edge609: x[100] + x[133] <= 1
 edge610: x[100] + x[103] <= 1
 edge611: x[100] + x[145] <= 1
 edge612: x[100] + x[105] <= 1
 edge613: x[100] + x[139] <= 1
 edge614: x[100] + x[149] <= 1
 edge615: x[100] + x[121] <= 1
 edge616: x[100] + x[123] <= 1
 edge617: x[100] + x[138] <= 1
 edge618: x[81] + x[13] <= 1
 edge619: x[81] + x[21] <= 1
 edge620: x[81] + x[39] <= 1
 edge621: x[81] + x[80] <= 1
 edge622: x[81] + x[129] <= 1
 edge623: x[81] + x[132] <= 1
 edge624: x[47] + x[41] <= 1
 edge625: x[47] + x[46] <= 1
 edge626: x[47] + x[69] <= 1
 edge627: x[47] + x[135] <= 1
 edge628: x[47] + x[72] <= 1
 edge629: x[47] + x[48] <= 1
 edge630: x[47] + x[136] <= 1
 edge631: x[47] + x[115] <= 1
 edge632: x[47] + x[78] <= 1
 edge633: x[47] + x[59] <= 1
 edge634: x[47] + x[85] <= 1
 edge635: x[18] + x[10] <= 1
 edge636: x[18] + x[17] <= 1
 edge637: x[18] + x[66] <= 1
 edge638: x[18] + x[37] <= 1
 edge639: x[18] + x[60] <= 1
 edge640: x[18] + x[141] <= 1
 edge641: x[18] + x[27] <= 1
 edge642: x[18] + x[92] <= 1
 edge643: x[18] + x[69] <= 1
 edge644: x[143] + x[21] <= 1
 edge645: x[143] + x[69] <= 1
 edge646: x[143] + x[78] <= 1
 edge647: x[143] + x[92] <= 1
 edge648: x[143] + x[123] <= 1
 edge649: x[143] + x[149] <= 1
 edge650: x[93] + x[13] <= 1
 edge651: x[93] + x[26] <= 1
 edge652: x[93] + x[40] <= 1
 edge653: x[93] + x[80] <= 1
 edge654: x[93] + x[91] <= 1
 edge655: x[93] + x[101] <= 1
 edge656: x[93] + x[148] <= 1
 edge657: x[72] + x[12] <= 1
 edge658: x[72] + x[15] <= 1
 edge659: x[72] + x[33] <= 1
 edge660: x[72] + x[42] <= 1
 edge661: x[72] + x[96] <= 1
 edge662: x[72] + x[145] <= 1
 edge663: x[72] + x[146] <= 1
 edge664: x[72] + x[115] <= 1
 edge665: x[72] + x[101] <= 1
 edge666: x[137] + x[7] <= 1
 edge667: x[137] + x[13] <= 1
 edge668: x[137] + x[20] <= 1
 edge669: x[137] + x[21] <= 1
 edge670: x[137] + x[42] <= 1
 edge671: x[137] + x[61] <= 1
 edge672: x[137] + x[80] <= 1
 edge673: x[137] + x[92] <= 1
 edge674: x[137] + x[94] <= 1
 edge675: x[137] + x[99] <= 1
 edge676: x[137] + x[131] <= 1
 edge677: x[137] + x[132] <= 1
 edge678: x[137] + x[148] <= 1
 edge679: x[13] + x[9] <= 1
 edge680: x[13] + x[33] <= 1
 edge681: x[13] + x[27] <= 1
 edge682: x[13] + x[76] <= 1
 edge683: x[13] + x[15] <= 1
 edge684: x[13] + x[144] <= 1
 edge685: x[13] + x[146] <= 1
 edge686: x[13] + x[57] <= 1
 edge687: x[13] + x[121] <= 1
 edge688: x[13] + x[122] <= 1
 edge689: x[13] + x[140] <= 1
 edge690: x[148] + x[9] <= 1
 edge691: x[148] + x[35] <= 1
 edge692: x[148] + x[37] <= 1
 edge693: x[148] + x[43] <= 1
 edge694: x[148] + x[59] <= 1
 edge695: x[148] + x[65] <= 1
 edge696: x[148] + x[92] <= 1
 edge697: x[148] + x[129] <= 1
 edge698: x[148] + x[136] <= 1
 edge699: x[148] + x[139] <= 1
 edge700: x[122] + x[27] <= 1
 edge701: x[122] + x[35] <= 1
 edge702: x[122] + x[39] <= 1
 edge703: x[122] + x[50] <= 1
 edge704: x[122] + x[55] <= 1
 edge705: x[122] + x[88] <= 1
 edge706: x[122] + x[96] <= 1
 edge707: x[125] + x[21] <= 1
 edge708: x[125] + x[37] <= 1
 edge709: x[125] + x[101] <= 1
 edge710: x[125] + x[104] <= 1
 edge711: x[125] + x[123] <= 1
 edge712: x[125] + x[142] <= 1
 edge713: x[125] + x[140] <= 1
 edge714: x[125] + x[146] <= 1
 edge715: x[33] + x[21] <= 1
 edge716: x[33] + x[132] <= 1
 edge717: x[33] + x[69] <= 1
 edge718: x[33] + x[39] <= 1
 edge719: x[33] + x[40] <= 1
 edge720: x[33] + x[73] <= 1
 edge721: x[33] + x[75] <= 1
 edge722: x[33] + x[114] <= 1
 edge723: x[33] + x[92] <= 1
 edge724: x[99] + x[14] <= 1
 edge725: x[99] + x[19] <= 1
 edge726: x[99] + x[54] <= 1
 edge727: x[99] + x[68] <= 1
 edge728: x[99] + x[69] <= 1
 edge729: x[99] + x[73] <= 1
 edge730: x[99] + x[91] <= 1
 edge731: x[99] + x[115] <= 1
 edge732: x[99] + x[103] <= 1
 edge733: x[99] + x[135] <= 1
 edge734: x[99] + x[111] <= 1
 edge735: x[99] + x[144] <= 1
 edge736: x[40] + x[27] <= 1
 edge737: x[40] + x[38] <= 1
 edge738: x[40] + x[129] <= 1
 edge739: x[40] + x[140] <= 1
 edge740: x[40] + x[149] <= 1
 edge741: x[40] + x[53] <= 1
 edge742: x[40] + x[55] <= 1
 edge743: x[40] + x[60] <= 1
 edge744: x[40] + x[67] <= 1
 edge745: x[40] + x[68] <= 1
 edge746: x[40] + x[69] <= 1
 edge747: x[40] + x[86] <= 1
 edge748: x[40] + x[107] <= 1
 edge749: x[40] + x[115] <= 1
 edge750: x[55] + x[10] <= 1
 edge751: x[55] + x[19] <= 1
 edge752: x[55] + x[54] <= 1
 edge753: x[55] + x[115] <= 1
 edge754: x[55] + x[103] <= 1
 edge755: x[55] + x[142] <= 1
 edge756: x[55] + x[80] <= 1
 edge757: x[55] + x[87] <= 1
 edge758: x[55] + x[123] <= 1
 edge759: x[28] + x[20] <= 1
 edge760: x[28] + x[37] <= 1
 edge761: x[28] + x[71] <= 1
 edge762: x[28] + x[42] <= 1
 edge763: x[28] + x[103] <= 1
 edge764: x[28] + x[149] <= 1
 edge765: x[28] + x[88] <= 1
 edge766: x[28] + x[95] <= 1
 edge767: x[28] + x[60] <= 1
 edge768: x[28] + x[101] <= 1
 edge769: x[7] + x[27] <= 1
 edge770: x[7] + x[103] <= 1
 edge771: x[7] + x[10] <= 1
 edge772: x[7] + x[76] <= 1
 edge773: x[7] + x[111] <= 1
 edge774: x[7] + x[20] <= 1
 edge775: x[7] + x[149] <= 1
 edge776: x[7] + x[26] <= 1
 edge777: x[7] + x[123] <= 1
 edge778: x[7] + x[138] <= 1
 edge779: x[7] + x[95] <= 1
 edge780: x[27] + x[96] <= 1
 edge781: x[27] + x[36] <= 1
 edge782: x[27] + x[144] <= 1
 edge783: x[27] + x[114] <= 1
 edge784: x[27] + x[94] <= 1
 edge785: x[27] + x[95] <= 1
 edge786: x[103] + x[41] <= 1
 edge787: x[103] + x[53] <= 1
 edge788: x[103] + x[80] <= 1
 edge789: x[103] + x[86] <= 1
 edge790: x[103] + x[87] <= 1
 edge791: x[103] + x[94] <= 1
 edge792: x[103] + x[142] <= 1
 edge793: x[103] + x[132] <= 1
 edge794: x[10] + x[144] <= 1
 edge795: x[10] + x[41] <= 1
 edge796: x[10] + x[138] <= 1
 edge797: x[10] + x[43] <= 1
 edge798: x[10] + x[44] <= 1
 edge799: x[10] + x[112] <= 1
 edge800: x[10] + x[88] <= 1
 edge801: x[10] + x[121] <= 1
 edge802: x[76] + x[20] <= 1
 edge803: x[76] + x[42] <= 1
 edge804: x[76] + x[66] <= 1
 edge805: x[76] + x[140] <= 1
 edge806: x[76] + x[142] <= 1
 edge807: x[76] + x[144] <= 1
 edge808: x[76] + x[91] <= 1
 edge809: x[76] + x[92] <= 1
 edge810: x[111] + x[48] <= 1
 edge811: x[111] + x[50] <= 1
 edge812: x[111] + x[59] <= 1
 edge813: x[111] + x[61] <= 1
 edge814: x[111] + x[79] <= 1
 edge815: x[111] + x[94] <= 1
 edge816: x[111] + x[105] <= 1
 edge817: x[111] + x[107] <= 1
 edge818: x[111] + x[109] <= 1
 edge819: x[111] + x[129] <= 1
 edge820: x[111] + x[141] <= 1
 edge821: x[111] + x[131] <= 1
 edge822: x[111] + x[121] <= 1
 edge823: x[20] + x[101] <= 1
 edge824: x[20] + x[39] <= 1
 edge825: x[20] + x[41] <= 1
 edge826: x[20] + x[109] <= 1
 edge827: x[20] + x[142] <= 1
 edge828: x[20] + x[85] <= 1
 edge829: x[20] + x[57] <= 1
 edge830: x[149] + x[11] <= 1
 edge831: x[149] + x[38] <= 1
 edge832: x[149] + x[56] <= 1
 edge833: x[149] + x[85] <= 1
 edge834: x[149] + x[107] <= 1
 edge835: x[149] + x[123] <= 1
 edge836: x[149] + x[131] <= 1
 edge837: x[149] + x[139] <= 1
 edge838: x[149] + x[144] <= 1
 edge839: x[26] + x[9] <= 1
 edge840: x[26] + x[19] <= 1
 edge841: x[26] + x[37] <= 1
 edge842: x[26] + x[61] <= 1
 edge843: x[26] + x[79] <= 1
 edge844: x[26] + x[104] <= 1
 edge845: x[26] + x[146] <= 1
 edge846: x[26] + x[57] <= 1
 edge847: x[123] + x[35] <= 1
 edge848: x[123] + x[65] <= 1
 edge849: x[123] + x[85] <= 1
 edge850: x[123] + x[91] <= 1
 edge851: x[123] + x[132] <= 1
 edge852: x[138] + x[11] <= 1
 edge853: x[138] + x[54] <= 1
 edge854: x[138] + x[57] <= 1
 edge855: x[138] + x[59] <= 1
 edge856: x[138] + x[82] <= 1
 edge857: x[138] + x[87] <= 1
 edge858: x[138] + x[95] <= 1
 edge859: x[138] + x[112] <= 1
 edge860: x[95] + x[48] <= 1
 edge861: x[95] + x[87] <= 1
 edge862: x[95] + x[144] <= 1
 edge863: x[95] + x[131] <= 1
 edge864: x[95] + x[140] <= 1
 edge865: x[80] + x[17] <= 1
 edge866: x[80] + x[21] <= 1
 edge867: x[80] + x[43] <= 1
 edge868: x[80] + x[44] <= 1
 edge869: x[80] + x[67] <= 1
 edge870: x[80] + x[73] <= 1
 edge871: x[80] + x[96] <= 1
 edge872: x[80] + x[115] <= 1
 edge873: x[130] + x[11] <= 1
 edge874: x[130] + x[88] <= 1
 edge875: x[130] + x[94] <= 1
 edge876: x[130] + x[105] <= 1
 edge877: x[130] + x[112] <= 1
 edge878: x[130] + x[124] <= 1
 edge879: x[130] + x[140] <= 1
 edge880: x[39] + x[68] <= 1
 edge881: x[39] + x[43] <= 1
 edge882: x[39] + x[82] <= 1
 edge883: x[39] + x[61] <= 1
 edge884: x[39] + x[146] <= 1
 edge885: x[39] + x[115] <= 1
 edge886: x[39] + x[54] <= 1
 edge887: x[39] + x[88] <= 1
 edge888: x[109] + x[38] <= 1
 edge889: x[109] + x[41] <= 1
 edge890: x[109] + x[69] <= 1
 edge891: x[109] + x[78] <= 1
 edge892: x[109] + x[88] <= 1
 edge893: x[48] + x[9] <= 1
 edge894: x[48] + x[44] <= 1
 edge895: x[48] + x[132] <= 1
 edge896: x[48] + x[53] <= 1
 edge897: x[114] + x[68] <= 1
 edge898: x[114] + x[69] <= 1
 edge899: x[114] + x[88] <= 1
 edge900: x[114] + x[97] <= 1
 edge901: x[114] + x[132] <= 1
 edge902: x[85] + x[46] <= 1
 edge903: x[85] + x[96] <= 1
 edge904: x[85] + x[101] <= 1
 edge905: x[85] + x[136] <= 1
 edge906: x[85] + x[86] <= 1
 edge907: x[9] + x[32] <= 1
 edge908: x[9] + x[65] <= 1
 edge909: x[9] + x[66] <= 1
 edge910: x[9] + x[91] <= 1
 edge911: x[9] + x[68] <= 1
 edge912: x[9] + x[107] <= 1
 edge913: x[9] + x[17] <= 1
 edge914: x[9] + x[82] <= 1
 edge915: x[9] + x[115] <= 1
 edge916: x[9] + x[59] <= 1
 edge917: x[32] + x[19] <= 1
 edge918: x[32] + x[128] <= 1
 edge919: x[32] + x[129] <= 1
 edge920: x[32] + x[37] <= 1
 edge921: x[32] + x[42] <= 1
 edge922: x[32] + x[46] <= 1
 edge923: x[32] + x[88] <= 1
 edge924: x[65] + x[11] <= 1
 edge925: x[65] + x[54] <= 1
 edge926: x[65] + x[96] <= 1
 edge927: x[65] + x[86] <= 1
 edge928: x[65] + x[144] <= 1
 edge929: x[65] + x[121] <= 1
 edge930: x[66] + x[15] <= 1
 edge931: x[66] + x[21] <= 1
 edge932: x[66] + x[36] <= 1
 edge933: x[66] + x[46] <= 1
 edge934: x[66] + x[69] <= 1
 edge935: x[66] + x[71] <= 1
 edge936: x[66] + x[135] <= 1
 edge937: x[91] + x[41] <= 1
 edge938: x[91] + x[56] <= 1
 edge939: x[91] + x[96] <= 1
 edge940: x[91] + x[129] <= 1
 edge941: x[91] + x[107] <= 1
 edge942: x[91] + x[144] <= 1
 edge943: x[91] + x[131] <= 1
 edge944: x[68] + x[57] <= 1
 edge945: x[68] + x[101] <= 1
 edge946: x[68] + x[140] <= 1
 edge947: x[68] + x[142] <= 1
 edge948: x[107] + x[35] <= 1
 edge949: x[107] + x[42] <= 1
 edge950: x[107] + x[105] <= 1
 edge951: x[107] + x[131] <= 1
 edge952: x[17] + x[140] <= 1
 edge953: x[82] + x[59] <= 1
 edge954: x[82] + x[96] <= 1
 edge955: x[82] + x[145] <= 1
 edge956: x[82] + x[105] <= 1
 edge957: x[115] + x[11] <= 1
 edge958: x[115] + x[35] <= 1
 edge959: x[115] + x[36] <= 1
 edge960: x[115] + x[78] <= 1
 edge961: x[115] + x[105] <= 1
 edge962: x[115] + x[133] <= 1
 edge963: x[115] + x[140] <= 1
 edge964: x[59] + x[12] <= 1
 edge965: x[59] + x[16] <= 1
 edge966: x[59] + x[35] <= 1
 edge967: x[59] + x[112] <= 1
 edge968: x[59] + x[75] <= 1
 edge969: x[59] + x[142] <= 1
 edge970: x[59] + x[88] <= 1
 edge971: x[144] + x[60] <= 1
 edge972: x[144] + x[146] <= 1
 edge973: x[41] + x[96] <= 1
 edge974: x[41] + x[97] <= 1
 edge975: x[41] + x[67] <= 1
 edge976: x[41] + x[135] <= 1
 edge977: x[41] + x[44] <= 1
 edge978: x[41] + x[88] <= 1
 edge979: x[41] + x[131] <= 1
 edge980: x[41] + x[56] <= 1
 edge981: x[41] + x[57] <= 1
 edge982: x[43] + x[15] <= 1
 edge983: x[43] + x[21] <= 1
 edge984: x[43] + x[60] <= 1
 edge985: x[43] + x[75] <= 1
 edge986: x[43] + x[135] <= 1
 edge987: x[44] + x[12] <= 1
 edge988: x[44] + x[21] <= 1
 edge989: x[44] + x[42] <= 1
 edge990: x[44] + x[86] <= 1
 edge991: x[44] + x[75] <= 1
 edge992: x[44] + x[61] <= 1
 edge993: x[44] + x[92] <= 1
 edge994: x[44] + x[56] <= 1
 edge995: x[44] + x[121] <= 1
 edge996: x[44] + x[124] <= 1
 edge997: x[112] + x[11] <= 1
 edge998: x[112] + x[19] <= 1
 edge999: x[112] + x[67] <= 1
 edge1000: x[112] + x[88] <= 1
 edge1001: x[112] + x[96] <= 1
 edge1002: x[112] + x[140] <= 1
 edge1003: x[88] + x[35] <= 1
 edge1004: x[88] + x[71] <= 1
 edge1005: x[88] + x[121] <= 1
 edge1006: x[121] + x[15] <= 1
 edge1007: x[121] + x[16] <= 1
 edge1008: x[11] + x[129] <= 1
 edge1009: x[11] + x[105] <= 1
 edge1010: x[129] + x[37] <= 1
 edge1011: x[129] + x[61] <= 1
 edge1012: x[129] + x[132] <= 1
 edge1013: x[105] + x[21] <= 1
 edge1014: x[105] + x[79] <= 1
 edge1015: x[105] + x[128] <= 1
 edge1016: x[105] + x[139] <= 1
 edge1017: x[105] + x[146] <= 1
 edge1018: x[12] + x[96] <= 1
 edge1019: x[12] + x[35] <= 1
 edge1020: x[12] + x[36] <= 1
 edge1021: x[12] + x[142] <= 1
 edge1022: x[96] + x[16] <= 1
 edge1023: x[96] + x[53] <= 1
 edge1024: x[96] + x[60] <= 1
 edge1025: x[35] + x[97] <= 1
 edge1026: x[35] + x[67] <= 1
 edge1027: x[35] + x[36] <= 1
 edge1028: x[35] + x[140] <= 1
 edge1029: x[35] + x[75] <= 1
 edge1030: x[35] + x[53] <= 1
 edge1031: x[36] + x[21] <= 1
 edge1032: x[36] + x[38] <= 1
 edge1033: x[36] + x[42] <= 1
 edge1034: x[36] + x[124] <= 1
 edge1035: x[142] + x[79] <= 1
 edge1036: x[142] + x[128] <= 1
 edge1037: x[15] + x[71] <= 1
 edge1038: x[15] + x[92] <= 1
 edge1039: x[146] + x[14] <= 1
 edge1040: x[146] + x[73] <= 1
 edge1041: x[146] + x[131] <= 1
 edge1042: x[146] + x[135] <= 1
 edge1043: x[146] + x[141] <= 1
 edge1044: x[57] + x[50] <= 1
 edge1045: x[57] + x[104] <= 1
 edge1046: x[57] + x[141] <= 1
 edge1047: x[57] + x[73] <= 1
 edge1048: x[140] + x[101] <= 1
 edge1049: x[14] + x[73] <= 1
 edge1050: x[14] + x[75] <= 1
 edge1051: x[14] + x[78] <= 1
 edge1052: x[73] + x[21] <= 1
 edge1053: x[73] + x[75] <= 1
 edge1054: x[75] + x[69] <= 1
 edge1055: x[75] + x[71] <= 1
 edge1056: x[75] + x[97] <= 1
 edge1057: x[75] + x[145] <= 1
 edge1058: x[78] + x[37] <= 1
 edge1059: x[78] + x[53] <= 1
 edge1060: x[78] + x[67] <= 1
 edge1061: x[78] + x[71] <= 1
 edge1062: x[78] + x[79] <= 1
 edge1063: x[71] + x[86] <= 1
 edge1064: x[92] + x[46] <= 1
 edge1065: x[92] + x[86] <= 1
 edge1066: x[92] + x[101] <= 1
 edge1067: x[16] + x[67] <= 1
 edge1068: x[16] + x[69] <= 1
 edge1069: x[16] + x[104] <= 1
 edge1070: x[16] + x[56] <= 1
 edge1071: x[67] + x[145] <= 1
 edge1072: x[67] + x[94] <= 1
 edge1073: x[67] + x[86] <= 1
 edge1074: x[69] + x[19] <= 1
 edge1075: x[69] + x[61] <= 1
 edge1076: x[69] + x[104] <= 1
 edge1077: x[104] + x[19] <= 1
 edge1078: x[104] + x[42] <= 1
 edge1079: x[104] + x[53] <= 1
 edge1080: x[104] + x[86] <= 1
 edge1081: x[104] + x[132] <= 1
 edge1082: x[56] + x[38] <= 1
 edge1083: x[56] + x[46] <= 1
 edge1084: x[56] + x[132] <= 1
 edge1085: x[56] + x[101] <= 1
 edge1086: x[56] + x[60] <= 1
 edge1087: x[56] + x[124] <= 1
 edge1088: x[37] + x[133] <= 1
 edge1089: x[37] + x[135] <= 1
 edge1090: x[37] + x[86] <= 1
 edge1091: x[60] + x[19] <= 1
 edge1092: x[60] + x[133] <= 1
 edge1093: x[60] + x[124] <= 1
 edge1094: x[141] + x[19] <= 1
 edge1095: x[141] + x[50] <= 1
 edge1096: x[141] + x[132] <= 1
 edge1097: x[141] + x[145] <= 1
 edge1098: x[19] + x[132] <= 1
 edge1099: x[19] + x[139] <= 1
 edge1100: x[19] + x[145] <= 1
 edge1101: x[132] + x[136] <= 1
 edge1102: x[139] + x[97] <= 1
 edge1103: x[139] + x[135] <= 1
 edge1104: x[145] + x[97] <= 1
 edge1105: x[145] + x[135] <= 1
 edge1106: x[101] + x[53] <= 1
 edge1107: x[101] + x[79] <= 1
 edge1108: x[101] + x[128] <= 1
 edge1109: x[101] + x[135] <= 1
 edge1110: x[21] + x[133] <= 1
 edge1111: x[21] + x[42] <= 1
 edge1112: x[21] + x[46] <= 1
 edge1113: x[21] + x[54] <= 1
 edge1114: x[133] + x[38] <= 1
 edge1115: x[133] + x[94] <= 1
 edge1116: x[133] + x[128] <= 1
 edge1117: x[42] + x[135] <= 1
 edge1118: x[42] + x[54] <= 1
 edge1119: x[46] + x[38] <= 1
 edge1120: x[46] + x[86] <= 1
 edge1121: x[46] + x[87] <= 1
 edge1122: x[46] + x[79] <= 1
 edge1123: x[46] + x[61] <= 1
 edge1124: x[46] + x[94] <= 1
 edge1125: x[54] + x[61] <= 1
 edge1126: x[135] + x[61] <= 1
 edge1127: x[53] + x[97] <= 1
 edge1128: x[53] + x[124] <= 1
 edge1129: x[128] + x[136] <= 1
 edge1130: x[50] + x[131] <= 1
 edge1131: x[50] + x[87] <= 1
 edge1132: x[131] + x[87] <= 1
 edge1133: x[87] + x[86] <= 1
Bounds
Binaries
 x[1] x[4] x[5] x[102] x[106] x[108] x[110] x[83] x[150] x[117] x[22] x[23]
 x[120] x[89] x[126] x[31] x[2] x[64] x[6] x[49] x[8] x[74] x[45] x[113]
 x[147] x[84] x[30] x[118] x[119] x[24] x[25] x[70] x[58] x[134] x[3] x[98]
 x[77] x[51] x[52] x[116] x[90] x[63] x[29] x[62] x[127] x[34] x[100] x[81]
 x[47] x[18] x[143] x[93] x[72] x[137] x[13] x[148] x[122] x[125] x[33]
 x[99] x[40] x[55] x[28] x[7] x[27] x[103] x[10] x[76] x[111] x[20] x[149]
 x[26] x[123] x[138] x[95] x[80] x[130] x[39] x[109] x[48] x[114] x[85]
 x[9] x[32] x[65] x[66] x[91] x[68] x[107] x[17] x[82] x[115] x[59] x[144]
 x[41] x[43] x[44] x[112] x[88] x[121] x[11] x[129] x[105] x[12] x[96]
 x[35] x[36] x[142] x[15] x[146] x[57] x[140] x[14] x[73] x[75] x[78] x[71]
 x[92] x[16] x[67] x[69] x[104] x[56] x[37] x[60] x[141] x[19] x[132]
 x[139] x[145] x[101] x[21] x[133] x[42] x[46] x[54] x[135] x[53] x[61]
 x[128] x[136] x[50] x[79] x[94] x[97] x[124] x[131] x[87] x[38] x[86]
End
